Data path: /scratch/opt/lxu/CFLG/benchmarks/random_A
Instance: r_20_0.3_49.txt
Result path: /scratch/opt/lxu/CFLG/results/random_A
Solver: Gurobi
Time limit: 7200
Formulation: EF
Cover: Large
julia --project=. src/main.jl /scratch/opt/lxu/CFLG/benchmarks/random_A r_20_0.3_49.txt /scratch/opt/lxu/CFLG/results/random_A Gurobi 7200 EF Large
The latest version of Julia in the `release` channel is 1.11.6+0.x64.linux.gnu. You currently have `1.11.4+0.x64.linux.gnu` installed. Run:

  juliaup update

in your terminal shell to install Julia 1.11.6+0.x64.linux.gnu and update the `release` channel to that version.
/scratch/opt/lxu/CFLG/benchmarks/random_A Gurobi 7200.0 /scratch/opt/lxu/CFLG/results/random_A r_20_0.3_49.txt EF Large
/scratch/opt/lxu/CFLG/benchmarks/random_A/r_20_0.3_49.txt

 read graph
data loaded

problem_graph/original graph: node: 20/20 edge: 49/49 dlt: 1.1994226555623737 break_avg_len: 0.5997113277811869 break_max_len: 0.9906862647862591elapsed CPU time: 0.011919 seconds
Set parameter TokenServer to value "solice01.zib.de"
Set parameter Threads to value 1
Set parameter OutputFlag to value 1
Set parameter MIPGap to value 0.0001
Set parameter TimeLimit to value 7199.988081

 model loaded

Gurobi Optimizer version 12.0.1 build v12.0.1rc0 (linux64 - "Debian GNU/Linux 12 (bookworm)")

CPU model: Intel(R) Xeon(R) Gold 5222 CPU @ 3.80GHz, instruction set [SSE2|AVX|AVX2|AVX512]
Thread count: 8 physical cores, 16 logical processors, using up to 1 threads

Non-default parameters:
TimeLimit  7199.988081
Threads  1

Optimize a model with 353633 rows, 121226 columns and 940653 nonzeros
Model fingerprint: 0x77e5e7d3
Variable types: 2989 continuous, 118237 integer (118237 binary)
Coefficient statistics:
  Matrix range     [3e-01, 9e+00]
  Objective range  [1e+00, 1e+00]
  Bounds range     [3e-01, 1e+00]
  RHS range        [1e-03, 9e+00]
Presolve removed 41248 rows and 16112 columns (presolve time = 5s)...
Presolve removed 41248 rows and 16112 columns (presolve time = 10s)...
Presolve removed 41248 rows and 16112 columns (presolve time = 15s)...
Presolve removed 41248 rows and 16112 columns (presolve time = 20s)...
Presolve removed 92002 rows and 22832 columns
Presolve time: 24.64s
Presolved: 261631 rows, 98394 columns, 690185 nonzeros
Variable types: 671 continuous, 97723 integer (97723 binary)
Found heuristic solution: objective 48.0000000
Found heuristic solution: objective 47.0000000
Root relaxation presolved: 261354 rows, 98125 columns, 689354 nonzeros


Root simplex log...

Iteration    Objective       Primal Inf.    Dual Inf.      Time
       0    0.0000000e+00   2.871379e+02   0.000000e+00     28s
   18993    1.0777293e-04   1.066451e+02   0.000000e+00     30s
   33344    4.7747968e-02   8.291362e+01   0.000000e+00     35s
   37720    5.4747121e-02   5.877822e+01   0.000000e+00     40s
   41130    5.4968921e-02   6.372425e+01   0.000000e+00     45s
   43880    6.0888579e-02   5.997358e+01   0.000000e+00     50s
   45650    6.0957768e-02   5.858571e+01   0.000000e+00     55s
   47470    6.2614778e-02   7.133205e+01   0.000000e+00     60s
   49120    6.5135168e-02   5.632806e+01   0.000000e+00     65s
   50980    6.6813428e-02   6.068421e+01   0.000000e+00     70s
   52810    6.7147287e-02   4.070787e+01   0.000000e+00     75s
   54610    6.7640729e-02   6.006964e+01   0.000000e+00     80s
   56550    6.9114463e-02   5.365587e+01   0.000000e+00     85s
   58110    6.9594367e-02   5.854015e+01   0.000000e+00     90s
   59900    6.9972633e-02   8.281790e+01   0.000000e+00     95s
   61480    7.0613431e-02   5.919934e+00   0.000000e+00    100s
   63270    7.0643976e-02   4.890468e+01   0.000000e+00    105s
   64480    7.0651745e-02   2.882463e+01   0.000000e+00    110s
   68290    7.1223524e-02   4.368452e+01   0.000000e+00    115s
   77935    7.1598958e-02   5.165801e+03   0.000000e+00    120s
   84150    7.1789066e-02   0.000000e+00   0.000000e+00    125s
   84150    7.1789066e-02   0.000000e+00   0.000000e+00    125s

Root relaxation: objective 7.178907e-02, 84150 iterations, 98.32 seconds (134.78 work units)
Total elapsed time = 155.46s (DegenMoves)
Total elapsed time = 165.95s (DegenMoves)

    Nodes    |    Current Node    |     Objective Bounds      |     Work
 Expl Unexpl |  Obj  Depth IntInf | Incumbent    BestBd   Gap | It/Node Time

     0     0    0.07179    0 26099   47.00000    0.07179   100%     -  261s
     0     0    0.07227    0 26271   47.00000    0.07227   100%     -  276s
H    0     0                      11.0000000    0.07227  99.3%     -  276s
H    0     0                       5.0000000    0.07227  98.6%     -  277s
H    0     0                       4.0000000    0.07227  98.2%     -  277s
H    0     0                       3.0000000    0.07227  97.6%     -  292s
     0     0    0.08426    0 19098    3.00000    0.08426  97.2%     -  313s
     0     0    1.95604    0 1670    3.00000    1.95604  34.8%     -  357s
     0     0    1.96491    0 1998    3.00000    1.96491  34.5%     -  367s
     0     0    2.00000    0 1912    3.00000    2.00000  33.3%     -  381s
     0     0    2.00000    0 1895    3.00000    2.00000  33.3%     -  392s
     0     0    2.00000    0 1907    3.00000    2.00000  33.3%     -  404s
     0     0    2.00000    0 1917    3.00000    2.00000  33.3%     -  416s
     0     0    2.00000    0 1894    3.00000    2.00000  33.3%     -  427s
     0     0    2.00000    0 1883    3.00000    2.00000  33.3%     -  439s
     0     0    2.00000    0 1889    3.00000    2.00000  33.3%     -  451s
     0     0    2.00000    0 1881    3.00000    2.00000  33.3%     -  462s
     0     0    2.00000    0 1878    3.00000    2.00000  33.3%     -  469s
     0     0    2.00000    0 2085    3.00000    2.00000  33.3%     -  495s
     0     0    2.00000    0 2040    3.00000    2.00000  33.3%     -  516s
     0     0    2.00000    0 2022    3.00000    2.00000  33.3%     -  534s
     0     0    2.00000    0 1941    3.00000    2.00000  33.3%     -  553s
     0     0    2.00000    0 1983    3.00000    2.00000  33.3%     -  569s
     0     0    2.00000    0 1948    3.00000    2.00000  33.3%     -  584s
     0     0    2.00000    0 1887    3.00000    2.00000  33.3%     -  599s
     0     0    2.00000    0 1839    3.00000    2.00000  33.3%     -  613s
     0     0    2.00000    0 1838    3.00000    2.00000  33.3%     -  627s
     0     0    2.00000    0 1692    3.00000    2.00000  33.3%     -  641s
     0     0    2.00000    0 1688    3.00000    2.00000  33.3%     -  648s
     0     0    2.00000    0 1715    3.00000    2.00000  33.3%     -  660s
     0     0    2.00000    0 1525    3.00000    2.00000  33.3%     -  673s
     0     0    2.00000    0 1333    3.00000    2.00000  33.3%     -  687s
     0     0    2.00000    0 1149    3.00000    2.00000  33.3%     -  699s
     0     0 infeasible    0         3.00000    3.00000  0.00%     -  712s

Cutting planes:
  Learned: 41
  Cover: 312
  Implied bound: 67
  Clique: 308
  MIR: 598
  StrongCG: 1
  Flow cover: 17
  RLT: 55
  Relax-and-lift: 529
  BQP: 29
  PSD: 4

Explored 1 nodes (660549 simplex iterations) in 712.77 seconds (679.23 work units)
Thread count was 1 (of 16 available processors)

Solution count 9: 3 3 4 ... 48

Optimal solution found (tolerance 1.00e-04)
Best objective 3.000000000000e+00, best bound 3.000000000000e+00, gap 0.0000%

User-callback calls 35506, time in user-callback 0.14 sec
Stat(MathOptInterface.OPTIMAL, 3.0, 3.0, 0.0, 4.2439915824e-314, 0.011919, 712.7737669944763, 1, Main.CFLG.EF, "", #undef)
